B=5;
D=1;
P=8;
S=8;
demands = [1 2 3 4 4 1 2 4 ];
capacities = [10 8 3 8 1 6 6 7 ];
dist_start = [2 4 5 7 4 8 6 4 ];
dist = [6 5 5 5 5 4 5 3 2 2 10 8 5 9 10 4 9 3 3 1 1 1 4 5 7 10 10 5 5 4 3 2 10 7 6 5 2 3 9 3 4 8 10 8 8 2 3 7 6 5 7 7 8 2 3 4 2 2 10 8 7 2 10 7 ];
